Version identifier: 22.1.1.0 | 2022-11-28 | 9160aff4d
CPXPARAM_TimeLimit                               3600
Tried aggregator 1 time.
MIP Presolve eliminated 50 rows and 1 columns.
Reduced MIP has 14750 rows, 2794 columns, and 44150 nonzeros.
Reduced MIP has 2794 binaries, 0 generals, 0 SOSs, and 0 indicators.
Presolve time = 0.03 sec. (24.69 ticks)
Found incumbent of value 1.1190356e+07 after 0.04 sec. (30.67 ticks)
Probing time = 0.01 sec. (4.79 ticks)
Tried aggregator 1 time.
Detecting symmetries...
Reduced MIP has 14750 rows, 2794 columns, and 44150 nonzeros.
Reduced MIP has 2794 binaries, 0 generals, 0 SOSs, and 0 indicators.
Presolve time = 0.04 sec. (29.27 ticks)
Probing time = 0.01 sec. (4.79 ticks)
Clique table members: 2500.
MIP emphasis: balance optimality and feasibility.
MIP search method: dynamic search.
Parallel mode: deterministic, using up to 8 threads.
Root relaxation solution time = 0.04 sec. (23.21 ticks)

        Nodes                                         Cuts/
   Node  Left     Objective  IInf  Best Integer    Best Bound    ItCnt     Gap

*     0+    0                       1.11904e+07        0.0000           100.00%
*     0+    0                      7714784.0000        0.0000           100.00%
*     0+    0                       691358.0000        0.0000           100.00%
*     0+    0                       553898.0000        0.0000           100.00%
      0     0    93774.0000   100   553898.0000    93774.0000      187   83.07%
      0     0   106217.5000   100   553898.0000     Cuts: 612      394   80.82%
      0     0   118774.0000    98   553898.0000     Cuts: 635      646   78.56%
*     0+    0                       259832.0000   118774.0000            54.29%
      0     0   128835.0432   177   259832.0000 ZeroHalf: 227     1494   50.42%
*     0+    0                       232585.0000   128835.0432            44.61%
*     0+    0                       203264.0000   128835.0432            36.62%
*     0+    0                       202020.0000   128835.0432            36.23%
*     0+    0                       200682.0000   128835.0432            35.80%
*     0+    0                       199648.0000   128835.0432            35.47%
      0     0  -1.00000e+75     0   199648.0000   128835.0432     1494   35.47%
*     0+    0                       198895.0000   128835.0432            35.22%
      0     0   131557.4223   190   198895.0000     Cuts: 201     1787   33.86%
      0     0   135906.5792   179   198895.0000     Cuts: 242     2317   31.67%
Detecting symmetries...
      0     0   138931.5859   209   198895.0000     Cuts: 117     2581   30.15%
Detecting symmetries...

Repeating presolve.
Tried aggregator 2 times.
MIP Presolve eliminated 6457 rows and 762 columns.
MIP Presolve modified 1248 coefficients.
Aggregator did 2 substitutions.
Reduced MIP has 8291 rows, 2030 columns, and 25903 nonzeros.
Reduced MIP has 2030 binaries, 0 generals, 0 SOSs, and 0 indicators.
Presolve time = 0.02 sec. (21.85 ticks)
Probing time = 0.00 sec. (3.53 ticks)
Tried aggregator 1 time.
Detecting symmetries...
Reduced MIP has 8291 rows, 2030 columns, and 25903 nonzeros.
Reduced MIP has 2030 binaries, 0 generals, 0 SOSs, and 0 indicators.
Presolve time = 0.02 sec. (17.47 ticks)
Represolve time = 0.05 sec. (54.58 ticks)
Probing time = 0.00 sec. (3.53 ticks)
Clique table members: 1899.
MIP emphasis: balance optimality and feasibility.
MIP search method: dynamic search.
Parallel mode: deterministic, using up to 8 threads.
Root relaxation solution time = 0.09 sec. (71.63 ticks)

        Nodes                                         Cuts/
   Node  Left     Objective  IInf  Best Integer    Best Bound    ItCnt     Gap

*     0+    0                       198895.0000   138931.5859            30.15%
      0     0   139371.9259   188   198895.0000   139371.9259     3359   29.93%
      0     0   142546.5542   212   198895.0000     Cuts: 114     3574   28.33%
      0     0   143861.8082   213   198895.0000      Cuts: 97     3708   27.67%
      0     0   145402.2015   202   198895.0000      Cuts: 60     3851   26.89%
      0     0   146138.2677   209   198895.0000      Cuts: 60     3968   26.52%
*     0+    0                       197756.0000   146138.2677            26.10%
*     0+    0                       197479.0000   146138.2677            26.00%
      0     0  -1.00000e+75     0   197479.0000   146138.2677     3968   26.00%
*     0+    0                       194796.0000   146138.2677            24.98%
      0     0   147363.4989   213   194796.0000      Cuts: 60     4131   24.35%
      0     0   149612.3947   213   194796.0000      Cuts: 76     4326   23.20%
      0     0   150373.1284   213   194796.0000      Cuts: 58     4452   22.80%
      0     0   151008.4515   195   194796.0000      Cuts: 48     4552   22.48%
      0     0   151455.2981   200   194796.0000      Cuts: 34     4619   22.25%
      0     0   151757.4201   198   194796.0000      Cuts: 42     4690   22.09%
      0     0   152001.9669   212   194796.0000      Cuts: 49     4755   21.97%
      0     0   152185.7043   212   194796.0000      Cuts: 24     4790   21.87%
      0     0   152233.3557   212   194796.0000      Cuts: 19     4816   21.85%
      0     0   152449.0077   209   194796.0000      Cuts: 41     4888   21.74%
      0     0   152707.8650   182   194796.0000      Cuts: 53     4957   21.61%
      0     0   152894.8779   182   194796.0000      Cuts: 54     5018   21.51%
      0     0   153076.0317   203   194796.0000      Cuts: 35     5091   21.42%
      0     0   153414.1993   195   194796.0000      Cuts: 39     5172   21.24%
      0     0   153642.2194   187   194796.0000      Cuts: 32     5242   21.13%
      0     0   153905.5230   197   194796.0000      Cuts: 37     5320   20.99%
      0     0   154126.9888   199   194796.0000      Cuts: 28     5388   20.88%
      0     0   154319.2479   196   194796.0000      Cuts: 38     5445   20.78%
      0     0   154416.5203   195   194796.0000      Cuts: 20     5491   20.73%
      0     0   154447.0278   200   194796.0000      Cuts: 17     5518   20.71%
      0     0   154467.6428   188   194796.0000      Cuts: 17     5549   20.70%
Detecting symmetries...
      0     2   154467.6428   188   194796.0000   154467.6428     5549   20.70%
Elapsed time = 7.20 sec. (4483.21 ticks, tree = 0.02 MB, solutions = 14)
     40    23   177852.2627   123   194796.0000   154535.4193     8908   20.67%
    222   139   185475.0000   110   194796.0000   154535.4193    25053   20.67%
    376   225        cutoff         194796.0000   154934.8702    37378   20.46%
    535   314   189785.2500   101   194796.0000   154934.8702    52032   20.46%
    694   445   183863.7692   112   194796.0000   155923.7092    68304   19.96%
    824   540   178940.0000   106   194796.0000   158246.9413    86629   18.76%
    972   620   191843.0000   101   194796.0000   159709.5340    96877   18.01%
   1130   716   188602.0000   103   194796.0000   161078.1009   108756   17.31%
   1318   831   191525.4036   158   194796.0000   164605.9091   120846   15.50%
   2170  1476   180869.1429   112   194796.0000   169378.5000   174090   13.05%
Elapsed time = 14.23 sec. (7606.12 ticks, tree = 44.44 MB, solutions = 14)
   3090  2037        cutoff         194796.0000   171292.2927   226566   12.07%

Performing restart 1

Repeating presolve.
Tried aggregator 2 times.
MIP Presolve eliminated 2736 rows and 431 columns.
MIP Presolve modified 1335 coefficients.
Aggregator did 4 substitutions.
Reduced MIP has 5551 rows, 1595 columns, and 18173 nonzeros.
Reduced MIP has 1595 binaries, 0 generals, 0 SOSs, and 0 indicators.
Presolve time = 0.03 sec. (19.84 ticks)
Tried aggregator 1 time.
MIP Presolve eliminated 1 rows and 0 columns.
MIP Presolve modified 1 coefficients.
Reduced MIP has 5550 rows, 1595 columns, and 18171 nonzeros.
Reduced MIP has 1595 binaries, 0 generals, 0 SOSs, and 0 indicators.
Presolve time = 0.02 sec. (15.76 ticks)
Represolve time = 0.07 sec. (50.07 ticks)
   3390     0   167061.9420   180   194796.0000      Cuts: 64   252401   11.63%
   3390     0   167513.6667   155   194796.0000      Cuts: 56   252541   11.63%
   3390     0   167661.9758   151   194796.0000      Cuts: 12   252624   11.63%
   3390     0   167797.1619   170   194796.0000      Cuts: 11   252680   11.63%
   3390     0   167837.4276   155   194796.0000      Cuts: 10   252710   11.63%
   3390     0   167933.3485   169   194796.0000      Cuts: 10   252763   11.63%
   3390     0   168094.6422   157   194796.0000      Cuts: 12   252827   11.63%
   3390     0   168143.4541   158   194796.0000      Cuts: 16   252883   11.63%
   3390     0   168212.7428   158   194796.0000      Cuts: 16   252936   11.63%
   3390     2   168212.7428   158   194796.0000   172145.5000   252936   11.63%
   3395     5   170213.0222   140   194796.0000   172145.5000   253431   11.63%
   3423    17   182213.1190   123   194796.0000   172145.5000   255774   11.63%
   3615   115   202574.7959   132   194796.0000   172145.5000   272321   11.63%
   4053   381   183126.8263   152   194796.0000   172145.5000   308865   11.63%
   4655   677   180793.2756   135   194796.0000   172145.5000   333906   11.63%
   5348  1127   185367.9091   121   194796.0000   172686.1000   376048   11.35%
   6029  1640   186397.0000    81   194796.0000   174958.8837   434259   10.18%
   6763  2003   183499.3912   149   194796.0000   176420.1250   481480    9.43%
Elapsed time = 36.46 sec. (19935.93 ticks, tree = 54.31 MB, solutions = 14)
   7497  2358        cutoff         194796.0000   178105.7000   522895    8.57%
   8222  2730   189793.5556   112   194796.0000   179463.4688   581555    7.87%
   9046  3100        cutoff         194796.0000   180527.3795   633788    7.32%
   9859  3431        cutoff         194796.0000   181417.6667   686267    6.87%
  10587  3666        cutoff         194796.0000   182308.7500   741918    6.41%
  11469  3805   193516.9412   135   194796.0000   183139.2222   787015    5.98%
  12207  3987   193060.6000   127   194796.0000   183688.4167   844312    5.70%
  13031  4060   193581.9091   104   194796.0000   184613.6341   889122    5.23%
  13946  4126        cutoff         194796.0000   185513.7667   951813    4.77%
  14809  4127        cutoff         194796.0000   186276.6500   996873    4.37%
Elapsed time = 56.88 sec. (29492.16 ticks, tree = 101.45 MB, solutions = 14)
  15788  4029        cutoff         194796.0000   187265.0000  1077398    3.87%
  16684  3836        cutoff         194796.0000   188134.3333  1132962    3.42%
  17703  3381   194743.6078   128   194796.0000   189356.0000  1182983    2.79%
  18912  2812   193809.5714   107   194796.0000   190609.8333  1233502    2.15%
  20315  1607        cutoff         194796.0000   192252.2778  1289412    1.31%
* 20351  1654      integral     0   194681.0000   192289.2500  1288299    1.23%

Implied bound cuts applied:  124
Zero-half cuts applied:  115
Lift and project cuts applied:  20
Gomory fractional cuts applied:  1

Root node processing (before b&c):
  Real time             =    7.19 sec. (4473.15 ticks)
Parallel b&c, 8 threads:
  Real time             =   62.43 sec. (30589.64 ticks)
  Sync time (average)   =    6.26 sec.
  Wait time (average)   =    0.00 sec.
                          ------------
Total (root+branch&cut) =   69.62 sec. (35062.79 ticks)
Status: Optimal
Obj: 194681

Instalacoes abertas:
Instalação 4 aberta
Instalação 8 aberta
Instalação 9 aberta
Instalação 20 aberta
Instalação 22 aberta
Instalação 47 aberta

Atribuições (cliente -> instalação):
Cliente 0 -> Instalação 9
Cliente 1 -> Instalação 47
Cliente 2 -> Instalação 47
Cliente 3 -> Instalação 20
Cliente 4 -> Instalação 9
Cliente 5 -> Instalação 4
Cliente 6 -> Instalação 20
Cliente 7 -> Instalação 9
Cliente 8 -> Instalação 8
Cliente 9 -> Instalação 9
Cliente 10 -> Instalação 20
Cliente 11 -> Instalação 4
Cliente 12 -> Instalação 20
Cliente 13 -> Instalação 9
Cliente 14 -> Instalação 20
Cliente 15 -> Instalação 9
Cliente 16 -> Instalação 20
Cliente 17 -> Instalação 20
Cliente 18 -> Instalação 8
Cliente 19 -> Instalação 9
Cliente 20 -> Instalação 20
Cliente 21 -> Instalação 9
Cliente 22 -> Instalação 22
Cliente 23 -> Instalação 8
Cliente 24 -> Instalação 9
Cliente 25 -> Instalação 20
Cliente 26 -> Instalação 4
Cliente 27 -> Instalação 22
Cliente 28 -> Instalação 20
Cliente 29 -> Instalação 4
Cliente 30 -> Instalação 20
Cliente 31 -> Instalação 4
Cliente 32 -> Instalação 8
Cliente 33 -> Instalação 4
Cliente 34 -> Instalação 8
Cliente 35 -> Instalação 9
Cliente 36 -> Instalação 4
Cliente 37 -> Instalação 4
Cliente 38 -> Instalação 9
Cliente 39 -> Instalação 4
Cliente 40 -> Instalação 20
Cliente 41 -> Instalação 4
Cliente 42 -> Instalação 9
Cliente 43 -> Instalação 47
Cliente 44 -> Instalação 9
Cliente 45 -> Instalação 8
Cliente 46 -> Instalação 4
Cliente 47 -> Instalação 47
Cliente 48 -> Instalação 4
Cliente 49 -> Instalação 9
